NAME: tsp30-9
TYPE: TSP
DIMENSION: 30
EDGE_WEIGHT_TYPE: EUC_2D
NODE_COORD_SECTION
0 95 56
1 79 16
2 59 22
3 42 15
4 36 62
5 92 62
6 15 49
7 1 49
8 64 76
9 44 92
10 15 96
11 72 74
12 76 27
13 33 22
14 56 98
15 18 50
16 23 59
17 27 47
18 83 97
19 95 16
20 81 10
21 16 37
22 54 29
23 30 16
24 93 9
25 94 72
26 31 56
27 59 17
28 31 69
29 95 91
EOF